
NAME : tiny_3node.vrp
COMMENT : Dummy 3-node instance for quantum ALM env test
TYPE : CVRP
DIMENSION : 3
EDGE_WEIGHT_TYPE : EXPLICIT
EDGE_WEIGHT_FORMAT : FULL_MATRIX
CAPACITY : 50
NODE_COORD_SECTION
1 0 0 
2 10 10
3 10 0
EDGE_WEIGHT_SECTION
0 10 15
10 0 5
15 5 0
DEMAND_SECTION
1 0
2 10
3 15
DEPOT_SECTION
1
-1
EOF
